p cnf 192 917
1 2 0
-1 -2 0
25 26 0
-25 -26 0
49 50 0
-49 -50 0
73 74 0
-73 -74 0
97 98 0
-97 -98 0
121 122 0
-121 -122 0
145 146 0
-145 -146 0
169 170 0
-169 -170 0
3 4 0
-3 -4 0
27 28 0
-27 -28 0
51 52 0
-51 -52 0
75 76 0
-75 -76 0
99 100 0
-99 -100 0
123 124 0
-123 -124 0
147 148 0
-147 -148 0
171 172 0
-171 -172 0
5 6 0
-5 -6 0
29 30 0
-29 -30 0
53 54 0
-53 -54 0
77 78 0
-77 -78 0
101 102 0
-101 -102 0
125 126 0
-125 -126 0
149 150 0
-149 -150 0
173 174 0
-173 -174 0
7 8 0
-7 -8 0
31 32 0
-31 -32 0
55 56 0
-55 -56 0
79 80 0
-79 -80 0
103 104 0
-103 -104 0
127 128 0
-127 -128 0
151 152 0
-151 -152 0
175 176 0
-175 -176 0
9 10 0
-9 -10 0
33 34 0
-33 -34 0
57 58 0
-57 -58 0
81 82 0
-81 -82 0
105 106 0
-105 -106 0
129 130 0
-129 -130 0
153 154 0
-153 -154 0
177 178 0
-177 -178 0
11 12 0
-11 -12 0
35 36 0
-35 -36 0
59 60 0
-59 -60 0
83 84 0
-83 -84 0
107 108 0
-107 -108 0
131 132 0
-131 -132 0
155 156 0
-155 -156 0
179 180 0
-179 -180 0
13 14 0
-13 -14 0
37 38 0
-37 -38 0
61 62 0
-61 -62 0
85 86 0
-85 -86 0
109 110 0
-109 -110 0
133 134 0
-133 -134 0
157 158 0
-157 -158 0
181 182 0
-181 -182 0
15 16 0
-15 -16 0
39 40 0
-39 -40 0
63 64 0
-63 -64 0
87 88 0
-87 -88 0
111 112 0
-111 -112 0
135 136 0
-135 -136 0
159 160 0
-159 -160 0
183 184 0
-183 -184 0
17 18 0
-17 -18 0
41 42 0
-41 -42 0
65 66 0
-65 -66 0
89 90 0
-89 -90 0
113 114 0
-113 -114 0
137 138 0
-137 -138 0
161 162 0
-161 -162 0
185 186 0
-185 -186 0
19 20 0
-19 -20 0
43 44 0
-43 -44 0
67 68 0
-67 -68 0
91 92 0
-91 -92 0
115 116 0
-115 -116 0
139 140 0
-139 -140 0
163 164 0
-163 -164 0
187 188 0
-187 -188 0
21 22 0
-21 -22 0
45 46 0
-45 -46 0
69 70 0
-69 -70 0
93 94 0
-93 -94 0
117 118 0
-117 -118 0
141 142 0
-141 -142 0
165 166 0
-165 -166 0
189 190 0
-189 -190 0
23 24 0
-23 -24 0
47 48 0
-47 -48 0
71 72 0
-71 -72 0
95 96 0
-95 -96 0
119 120 0
-119 -120 0
143 144 0
-143 -144 0
167 168 0
-167 -168 0
191 192 0
-191 -192 0
-1 -25 -169 4 0
-1 -26 -169 4 0
-1 -25 -170 4 0
-1 -26 -170 4 0
-2 -25 -169 4 0
-2 -26 -169 4 0
-2 -25 -170 4 0
-2 -26 -170 3 0
-25 -1 -49 28 0
-25 -2 -49 28 0
-25 -1 -50 28 0
-25 -2 -50 28 0
-26 -1 -49 28 0
-26 -2 -49 28 0
-26 -1 -50 28 0
-26 -2 -50 27 0
-49 -25 -73 52 0
-49 -26 -73 52 0
-49 -25 -74 52 0
-49 -26 -74 52 0
-50 -25 -73 52 0
-50 -26 -73 52 0
-50 -25 -74 52 0
-50 -26 -74 51 0
-73 -49 -97 76 0
-73 -50 -97 76 0
-73 -49 -98 76 0
-73 -50 -98 76 0
-74 -49 -97 76 0
-74 -50 -97 76 0
-74 -49 -98 76 0
-74 -50 -98 75 0
-97 -73 -121 100 0
-97 -74 -121 100 0
-97 -73 -122 100 0
-97 -74 -122 100 0
-98 -73 -121 100 0
-98 -74 -121 100 0
-98 -73 -122 100 0
-98 -74 -122 99 0
-121 -97 -145 124 0
-121 -98 -145 124 0
-121 -97 -146 124 0
-121 -98 -146 124 0
-122 -97 -145 124 0
-122 -98 -145 124 0
-122 -97 -146 124 0
-122 -98 -146 123 0
-145 -121 -169 148 0
-145 -122 -169 148 0
-145 -121 -170 148 0
-145 -122 -170 148 0
-146 -121 -169 148 0
-146 -122 -169 148 0
-146 -121 -170 148 0
-146 -122 -170 147 0
-169 -1 -145 172 0
-169 -2 -145 172 0
-169 -1 -146 172 0
-169 -2 -146 172 0
-170 -1 -145 172 0
-170 -2 -145 172 0
-170 -1 -146 172 0
-170 -2 -146 171 0
-3 -27 -171 6 0
-3 -28 -171 6 0
-3 -27 -172 6 0
-3 -28 -172 6 0
-4 -27 -171 6 0
-4 -28 -171 6 0
-4 -27 -172 6 0
-4 -28 -172 5 0
-27 -3 -51 30 0
-27 -4 -51 30 0
-27 -3 -52 30 0
-27 -4 -52 30 0
-28 -3 -51 30 0
-28 -4 -51 30 0
-28 -3 -52 30 0
-28 -4 -52 29 0
-51 -27 -75 54 0
-51 -28 -75 54 0
-51 -27 -76 54 0
-51 -28 -76 54 0
-52 -27 -75 54 0
-52 -28 -75 54 0
-52 -27 -76 54 0
-52 -28 -76 53 0
-75 -51 -99 78 0
-75 -52 -99 78 0
-75 -51 -100 78 0
-75 -52 -100 78 0
-76 -51 -99 78 0
-76 -52 -99 78 0
-76 -51 -100 78 0
-76 -52 -100 77 0
-99 -75 -123 102 0
-99 -76 -123 102 0
-99 -75 -124 102 0
-99 -76 -124 102 0
-100 -75 -123 102 0
-100 -76 -123 102 0
-100 -75 -124 102 0
-100 -76 -124 101 0
-123 -99 -147 126 0
-123 -100 -147 126 0
-123 -99 -148 126 0
-123 -100 -148 126 0
-124 -99 -147 126 0
-124 -100 -147 126 0
-124 -99 -148 126 0
-124 -100 -148 125 0
-147 -123 -171 150 0
-147 -124 -171 150 0
-147 -123 -172 150 0
-147 -124 -172 150 0
-148 -123 -171 150 0
-148 -124 -171 150 0
-148 -123 -172 150 0
-148 -124 -172 149 0
-171 -3 -147 174 0
-171 -4 -147 174 0
-171 -3 -148 174 0
-171 -4 -148 174 0
-172 -3 -147 174 0
-172 -4 -147 174 0
-172 -3 -148 174 0
-172 -4 -148 173 0
-5 -29 -173 8 0
-5 -30 -173 8 0
-5 -29 -174 8 0
-5 -30 -174 8 0
-6 -29 -173 8 0
-6 -30 -173 8 0
-6 -29 -174 8 0
-6 -30 -174 7 0
-29 -5 -53 32 0
-29 -6 -53 32 0
-29 -5 -54 32 0
-29 -6 -54 32 0
-30 -5 -53 32 0
-30 -6 -53 32 0
-30 -5 -54 32 0
-30 -6 -54 31 0
-53 -29 -77 56 0
-53 -30 -77 56 0
-53 -29 -78 56 0
-53 -30 -78 56 0
-54 -29 -77 56 0
-54 -30 -77 56 0
-54 -29 -78 56 0
-54 -30 -78 55 0
-77 -53 -101 80 0
-77 -54 -101 80 0
-77 -53 -102 80 0
-77 -54 -102 80 0
-78 -53 -101 80 0
-78 -54 -101 80 0
-78 -53 -102 80 0
-78 -54 -102 79 0
-101 -77 -125 104 0
-101 -78 -125 104 0
-101 -77 -126 104 0
-101 -78 -126 104 0
-102 -77 -125 104 0
-102 -78 -125 104 0
-102 -77 -126 104 0
-102 -78 -126 103 0
-125 -101 -149 128 0
-125 -102 -149 128 0
-125 -101 -150 128 0
-125 -102 -150 128 0
-126 -101 -149 128 0
-126 -102 -149 128 0
-126 -101 -150 128 0
-126 -102 -150 127 0
-149 -125 -173 152 0
-149 -126 -173 152 0
-149 -125 -174 152 0
-149 -126 -174 152 0
-150 -125 -173 152 0
-150 -126 -173 152 0
-150 -125 -174 152 0
-150 -126 -174 151 0
-173 -5 -149 176 0
-173 -6 -149 176 0
-173 -5 -150 176 0
-173 -6 -150 176 0
-174 -5 -149 176 0
-174 -6 -149 176 0
-174 -5 -150 176 0
-174 -6 -150 175 0
-7 -31 -175 10 0
-7 -32 -175 10 0
-7 -31 -176 10 0
-7 -32 -176 10 0
-8 -31 -175 10 0
-8 -32 -175 10 0
-8 -31 -176 10 0
-8 -32 -176 9 0
-31 -7 -55 34 0
-31 -8 -55 34 0
-31 -7 -56 34 0
-31 -8 -56 34 0
-32 -7 -55 34 0
-32 -8 -55 34 0
-32 -7 -56 34 0
-32 -8 -56 33 0
-55 -31 -79 58 0
-55 -32 -79 58 0
-55 -31 -80 58 0
-55 -32 -80 58 0
-56 -31 -79 58 0
-56 -32 -79 58 0
-56 -31 -80 58 0
-56 -32 -80 57 0
-79 -55 -103 82 0
-79 -56 -103 82 0
-79 -55 -104 82 0
-79 -56 -104 82 0
-80 -55 -103 82 0
-80 -56 -103 82 0
-80 -55 -104 82 0
-80 -56 -104 81 0
-103 -79 -127 106 0
-103 -80 -127 106 0
-103 -79 -128 106 0
-103 -80 -128 106 0
-104 -79 -127 106 0
-104 -80 -127 106 0
-104 -79 -128 106 0
-104 -80 -128 105 0
-127 -103 -151 130 0
-127 -104 -151 130 0
-127 -103 -152 130 0
-127 -104 -152 130 0
-128 -103 -151 130 0
-128 -104 -151 130 0
-128 -103 -152 130 0
-128 -104 -152 129 0
-151 -127 -175 154 0
-151 -128 -175 154 0
-151 -127 -176 154 0
-151 -128 -176 154 0
-152 -127 -175 154 0
-152 -128 -175 154 0
-152 -127 -176 154 0
-152 -128 -176 153 0
-175 -7 -151 178 0
-175 -8 -151 178 0
-175 -7 -152 178 0
-175 -8 -152 178 0
-176 -7 -151 178 0
-176 -8 -151 178 0
-176 -7 -152 178 0
-176 -8 -152 177 0
-9 -33 -177 12 0
-9 -34 -177 12 0
-9 -33 -178 12 0
-9 -34 -178 12 0
-10 -33 -177 12 0
-10 -34 -177 12 0
-10 -33 -178 12 0
-10 -34 -178 11 0
-33 -9 -57 36 0
-33 -10 -57 36 0
-33 -9 -58 36 0
-33 -10 -58 36 0
-34 -9 -57 36 0
-34 -10 -57 36 0
-34 -9 -58 36 0
-34 -10 -58 35 0
-57 -33 -81 60 0
-57 -34 -81 60 0
-57 -33 -82 60 0
-57 -34 -82 60 0
-58 -33 -81 60 0
-58 -34 -81 60 0
-58 -33 -82 60 0
-58 -34 -82 59 0
-81 -57 -105 84 0
-81 -58 -105 84 0
-81 -57 -106 84 0
-81 -58 -106 84 0
-82 -57 -105 84 0
-82 -58 -105 84 0
-82 -57 -106 84 0
-82 -58 -106 83 0
-105 -81 -129 108 0
-105 -82 -129 108 0
-105 -81 -130 108 0
-105 -82 -130 108 0
-106 -81 -129 108 0
-106 -82 -129 108 0
-106 -81 -130 108 0
-106 -82 -130 107 0
-129 -105 -153 132 0
-129 -106 -153 132 0
-129 -105 -154 132 0
-129 -106 -154 132 0
-130 -105 -153 132 0
-130 -106 -153 132 0
-130 -105 -154 132 0
-130 -106 -154 131 0
-153 -129 -177 156 0
-153 -130 -177 156 0
-153 -129 -178 156 0
-153 -130 -178 156 0
-154 -129 -177 156 0
-154 -130 -177 156 0
-154 -129 -178 156 0
-154 -130 -178 155 0
-177 -9 -153 180 0
-177 -10 -153 180 0
-177 -9 -154 180 0
-177 -10 -154 180 0
-178 -9 -153 180 0
-178 -10 -153 180 0
-178 -9 -154 180 0
-178 -10 -154 179 0
-11 -35 -179 14 0
-11 -36 -179 14 0
-11 -35 -180 14 0
-11 -36 -180 14 0
-12 -35 -179 14 0
-12 -36 -179 14 0
-12 -35 -180 14 0
-12 -36 -180 13 0
-35 -11 -59 38 0
-35 -12 -59 38 0
-35 -11 -60 38 0
-35 -12 -60 38 0
-36 -11 -59 38 0
-36 -12 -59 38 0
-36 -11 -60 38 0
-36 -12 -60 37 0
-59 -35 -83 62 0
-59 -36 -83 62 0
-59 -35 -84 62 0
-59 -36 -84 62 0
-60 -35 -83 62 0
-60 -36 -83 62 0
-60 -35 -84 62 0
-60 -36 -84 61 0
-83 -59 -107 86 0
-83 -60 -107 86 0
-83 -59 -108 86 0
-83 -60 -108 86 0
-84 -59 -107 86 0
-84 -60 -107 86 0
-84 -59 -108 86 0
-84 -60 -108 85 0
-107 -83 -131 110 0
-107 -84 -131 110 0
-107 -83 -132 110 0
-107 -84 -132 110 0
-108 -83 -131 110 0
-108 -84 -131 110 0
-108 -83 -132 110 0
-108 -84 -132 109 0
-131 -107 -155 134 0
-131 -108 -155 134 0
-131 -107 -156 134 0
-131 -108 -156 134 0
-132 -107 -155 134 0
-132 -108 -155 134 0
-132 -107 -156 134 0
-132 -108 -156 133 0
-155 -131 -179 158 0
-155 -132 -179 158 0
-155 -131 -180 158 0
-155 -132 -180 158 0
-156 -131 -179 158 0
-156 -132 -179 158 0
-156 -131 -180 158 0
-156 -132 -180 157 0
-179 -11 -155 182 0
-179 -12 -155 182 0
-179 -11 -156 182 0
-179 -12 -156 182 0
-180 -11 -155 182 0
-180 -12 -155 182 0
-180 -11 -156 182 0
-180 -12 -156 181 0
-13 -37 -181 16 0
-13 -38 -181 16 0
-13 -37 -182 16 0
-13 -38 -182 16 0
-14 -37 -181 16 0
-14 -38 -181 16 0
-14 -37 -182 16 0
-14 -38 -182 15 0
-37 -13 -61 40 0
-37 -14 -61 40 0
-37 -13 -62 40 0
-37 -14 -62 40 0
-38 -13 -61 40 0
-38 -14 -61 40 0
-38 -13 -62 40 0
-38 -14 -62 39 0
-61 -37 -85 64 0
-61 -38 -85 64 0
-61 -37 -86 64 0
-61 -38 -86 64 0
-62 -37 -85 64 0
-62 -38 -85 64 0
-62 -37 -86 64 0
-62 -38 -86 63 0
-85 -61 -109 88 0
-85 -62 -109 88 0
-85 -61 -110 88 0
-85 -62 -110 88 0
-86 -61 -109 88 0
-86 -62 -109 88 0
-86 -61 -110 88 0
-86 -62 -110 87 0
-109 -85 -133 112 0
-109 -86 -133 112 0
-109 -85 -134 112 0
-109 -86 -134 112 0
-110 -85 -133 112 0
-110 -86 -133 112 0
-110 -85 -134 112 0
-110 -86 -134 111 0
-133 -109 -157 136 0
-133 -110 -157 136 0
-133 -109 -158 136 0
-133 -110 -158 136 0
-134 -109 -157 136 0
-134 -110 -157 136 0
-134 -109 -158 136 0
-134 -110 -158 135 0
-157 -133 -181 160 0
-157 -134 -181 160 0
-157 -133 -182 160 0
-157 -134 -182 160 0
-158 -133 -181 160 0
-158 -134 -181 160 0
-158 -133 -182 160 0
-158 -134 -182 159 0
-181 -13 -157 184 0
-181 -14 -157 184 0
-181 -13 -158 184 0
-181 -14 -158 184 0
-182 -13 -157 184 0
-182 -14 -157 184 0
-182 -13 -158 184 0
-182 -14 -158 183 0
-15 -39 -183 18 0
-15 -40 -183 18 0
-15 -39 -184 18 0
-15 -40 -184 18 0
-16 -39 -183 18 0
-16 -40 -183 18 0
-16 -39 -184 18 0
-16 -40 -184 17 0
-39 -15 -63 42 0
-39 -16 -63 42 0
-39 -15 -64 42 0
-39 -16 -64 42 0
-40 -15 -63 42 0
-40 -16 -63 42 0
-40 -15 -64 42 0
-40 -16 -64 41 0
-63 -39 -87 66 0
-63 -40 -87 66 0
-63 -39 -88 66 0
-63 -40 -88 66 0
-64 -39 -87 66 0
-64 -40 -87 66 0
-64 -39 -88 66 0
-64 -40 -88 65 0
-87 -63 -111 90 0
-87 -64 -111 90 0
-87 -63 -112 90 0
-87 -64 -112 90 0
-88 -63 -111 90 0
-88 -64 -111 90 0
-88 -63 -112 90 0
-88 -64 -112 89 0
-111 -87 -135 114 0
-111 -88 -135 114 0
-111 -87 -136 114 0
-111 -88 -136 114 0
-112 -87 -135 114 0
-112 -88 -135 114 0
-112 -87 -136 114 0
-112 -88 -136 113 0
-135 -111 -159 138 0
-135 -112 -159 138 0
-135 -111 -160 138 0
-135 -112 -160 138 0
-136 -111 -159 138 0
-136 -112 -159 138 0
-136 -111 -160 138 0
-136 -112 -160 137 0
-159 -135 -183 162 0
-159 -136 -183 162 0
-159 -135 -184 162 0
-159 -136 -184 162 0
-160 -135 -183 162 0
-160 -136 -183 162 0
-160 -135 -184 162 0
-160 -136 -184 161 0
-183 -15 -159 186 0
-183 -16 -159 186 0
-183 -15 -160 186 0
-183 -16 -160 186 0
-184 -15 -159 186 0
-184 -16 -159 186 0
-184 -15 -160 186 0
-184 -16 -160 185 0
-17 -41 -185 20 0
-17 -42 -185 20 0
-17 -41 -186 20 0
-17 -42 -186 20 0
-18 -41 -185 20 0
-18 -42 -185 20 0
-18 -41 -186 20 0
-18 -42 -186 19 0
-41 -17 -65 44 0
-41 -18 -65 44 0
-41 -17 -66 44 0
-41 -18 -66 44 0
-42 -17 -65 44 0
-42 -18 -65 44 0
-42 -17 -66 44 0
-42 -18 -66 43 0
-65 -41 -89 68 0
-65 -42 -89 68 0
-65 -41 -90 68 0
-65 -42 -90 68 0
-66 -41 -89 68 0
-66 -42 -89 68 0
-66 -41 -90 68 0
-66 -42 -90 67 0
-89 -65 -113 92 0
-89 -66 -113 92 0
-89 -65 -114 92 0
-89 -66 -114 92 0
-90 -65 -113 92 0
-90 -66 -113 92 0
-90 -65 -114 92 0
-90 -66 -114 91 0
-113 -89 -137 116 0
-113 -90 -137 116 0
-113 -89 -138 116 0
-113 -90 -138 116 0
-114 -89 -137 116 0
-114 -90 -137 116 0
-114 -89 -138 116 0
-114 -90 -138 115 0
-137 -113 -161 140 0
-137 -114 -161 140 0
-137 -113 -162 140 0
-137 -114 -162 140 0
-138 -113 -161 140 0
-138 -114 -161 140 0
-138 -113 -162 140 0
-138 -114 -162 139 0
-161 -137 -185 164 0
-161 -138 -185 164 0
-161 -137 -186 164 0
-161 -138 -186 164 0
-162 -137 -185 164 0
-162 -138 -185 164 0
-162 -137 -186 164 0
-162 -138 -186 163 0
-185 -17 -161 188 0
-185 -18 -161 188 0
-185 -17 -162 188 0
-185 -18 -162 188 0
-186 -17 -161 188 0
-186 -18 -161 188 0
-186 -17 -162 188 0
-186 -18 -162 187 0
-19 -43 -187 22 0
-19 -44 -187 22 0
-19 -43 -188 22 0
-19 -44 -188 22 0
-20 -43 -187 22 0
-20 -44 -187 22 0
-20 -43 -188 22 0
-20 -44 -188 21 0
-43 -19 -67 46 0
-43 -20 -67 46 0
-43 -19 -68 46 0
-43 -20 -68 46 0
-44 -19 -67 46 0
-44 -20 -67 46 0
-44 -19 -68 46 0
-44 -20 -68 45 0
-67 -43 -91 70 0
-67 -44 -91 70 0
-67 -43 -92 70 0
-67 -44 -92 70 0
-68 -43 -91 70 0
-68 -44 -91 70 0
-68 -43 -92 70 0
-68 -44 -92 69 0
-91 -67 -115 94 0
-91 -68 -115 94 0
-91 -67 -116 94 0
-91 -68 -116 94 0
-92 -67 -115 94 0
-92 -68 -115 94 0
-92 -67 -116 94 0
-92 -68 -116 93 0
-115 -91 -139 118 0
-115 -92 -139 118 0
-115 -91 -140 118 0
-115 -92 -140 118 0
-116 -91 -139 118 0
-116 -92 -139 118 0
-116 -91 -140 118 0
-116 -92 -140 117 0
-139 -115 -163 142 0
-139 -116 -163 142 0
-139 -115 -164 142 0
-139 -116 -164 142 0
-140 -115 -163 142 0
-140 -116 -163 142 0
-140 -115 -164 142 0
-140 -116 -164 141 0
-163 -139 -187 166 0
-163 -140 -187 166 0
-163 -139 -188 166 0
-163 -140 -188 166 0
-164 -139 -187 166 0
-164 -140 -187 166 0
-164 -139 -188 166 0
-164 -140 -188 165 0
-187 -19 -163 190 0
-187 -20 -163 190 0
-187 -19 -164 190 0
-187 -20 -164 190 0
-188 -19 -163 190 0
-188 -20 -163 190 0
-188 -19 -164 190 0
-188 -20 -164 189 0
-21 -45 -189 24 0
-21 -46 -189 24 0
-21 -45 -190 24 0
-21 -46 -190 24 0
-22 -45 -189 24 0
-22 -46 -189 24 0
-22 -45 -190 24 0
-22 -46 -190 23 0
-45 -21 -69 48 0
-45 -22 -69 48 0
-45 -21 -70 48 0
-45 -22 -70 48 0
-46 -21 -69 48 0
-46 -22 -69 48 0
-46 -21 -70 48 0
-46 -22 -70 47 0
-69 -45 -93 72 0
-69 -46 -93 72 0
-69 -45 -94 72 0
-69 -46 -94 72 0
-70 -45 -93 72 0
-70 -46 -93 72 0
-70 -45 -94 72 0
-70 -46 -94 71 0
-93 -69 -117 96 0
-93 -70 -117 96 0
-93 -69 -118 96 0
-93 -70 -118 96 0
-94 -69 -117 96 0
-94 -70 -117 96 0
-94 -69 -118 96 0
-94 -70 -118 95 0
-117 -93 -141 120 0
-117 -94 -141 120 0
-117 -93 -142 120 0
-117 -94 -142 120 0
-118 -93 -141 120 0
-118 -94 -141 120 0
-118 -93 -142 120 0
-118 -94 -142 119 0
-141 -117 -165 144 0
-141 -118 -165 144 0
-141 -117 -166 144 0
-141 -118 -166 144 0
-142 -117 -165 144 0
-142 -118 -165 144 0
-142 -117 -166 144 0
-142 -118 -166 143 0
-165 -141 -189 168 0
-165 -142 -189 168 0
-165 -141 -190 168 0
-165 -142 -190 168 0
-166 -141 -189 168 0
-166 -142 -189 168 0
-166 -141 -190 168 0
-166 -142 -190 167 0
-189 -21 -165 192 0
-189 -22 -165 192 0
-189 -21 -166 192 0
-189 -22 -166 192 0
-190 -21 -165 192 0
-190 -22 -165 192 0
-190 -21 -166 192 0
-190 -22 -166 191 0
-23 -47 -71 -95 -119 -143 -167 -191 0
-24 -48 -72 -96 -120 -144 -168 -192 0
-1 -25 -49 -73 -97 -121 -145 -169 0
-2 -26 -50 -74 -98 -122 -146 -170 0
-3 -27 -51 -75 -99 -123 -147 -171 0
-4 -28 -52 -76 -100 -124 -148 -172 0
-7 -31 -55 -79 -103 -127 -151 -175 0
-8 -32 -56 -80 -104 -128 -152 -176 0
-11 -35 -59 -83 -107 -131 -155 -179 0
-12 -36 -60 -84 -108 -132 -156 -180 0
-15 -39 -63 -87 -111 -135 -159 -183 0
-16 -40 -64 -88 -112 -136 -160 -184 0
-19 -43 -67 -91 -115 -139 -163 -187 0
-20 -44 -68 -92 -116 -140 -164 -188 0
-25 -2 0
-49 -2 0
-73 -2 0
-97 -2 0
-121 -2 0
-145 -2 0
-169 -2 0
